Results/Experiment 1 Results/New Benchmark/RES_60/output_p1_0.00_p2_0.00_n_60_16.txt
solutions: 373248 nodes: 678154  modelTime: 124  solveTime: 2459  totalTime: 2595  modelSize: 7853  readTime: 12 matchingSize: 30
