Results/Experiment 2 Results/New Benchmark/output_p1_0.00_p2_0.00_n_60_16.lp
clingo version 5.4.0
Reading from tempSRTISolver.lp ...
Solving...
Answer: 1
matched(1,2) matched(8,3) matched(7,4) matched(6,5) matched(5,6) matched(4,7) matched(3,8) matched(12,10) matched(9,11) matched(10,12) matched(11,9) matched(18,14) matched(13,15) matched(20,16) matched(19,17) matched(14,18) matched(17,19) matched(16,20) matched(15,13) matched(21,22) matched(28,23) matched(27,24) matched(26,25) matched(25,26) matched(24,27) matched(23,28) matched(22,21) matched(32,30) matched(29,31) matched(30,32) matched(31,29) matched(38,34) matched(33,35) matched(40,36) matched(39,37) matched(34,38) matched(37,39) matched(36,40) matched(35,33) matched(46,42) matched(41,43) matched(48,44) matched(47,45) matched(42,46) matched(45,47) matched(44,48) matched(43,41) matched(52,50) matched(49,51) matched(50,52) matched(51,49) matched(53,54) matched(58,55) matched(59,56) matched(60,57) matched(55,58) matched(56,59) matched(57,60) matched(54,53) matched(2,1)
Optimization: 881
Answer: 2
matched(1,2) matched(8,3) matched(7,4) matched(6,5) matched(5,6) matched(4,7) matched(3,8) matched(12,10) matched(9,11) matched(10,12) matched(11,9) matched(18,14) matched(13,15) matched(20,16) matched(19,17) matched(14,18) matched(17,19) matched(16,20) matched(15,13) matched(21,22) matched(28,23) matched(27,24) matched(26,25) matched(25,26) matched(24,27) matched(23,28) matched(22,21) matched(32,30) matched(29,31) matched(30,32) matched(31,29) matched(38,34) matched(33,35) matched(40,36) matched(39,37) matched(34,38) matched(37,39) matched(36,40) matched(35,33) matched(46,42) matched(41,43) matched(48,44) matched(47,45) matched(42,46) matched(45,47) matched(44,48) matched(43,41) matched(52,50) matched(49,51) matched(50,52) matched(51,49) matched(58,54) matched(53,55) matched(60,56) matched(59,57) matched(54,58) matched(57,59) matched(56,60) matched(55,53) matched(2,1)
Optimization: 877
Answer: 3
matched(1,2) matched(6,3) matched(7,4) matched(8,5) matched(3,6) matched(4,7) matched(5,8) matched(12,10) matched(9,11) matched(10,12) matched(11,9) matched(18,14) matched(13,15) matched(20,16) matched(19,17) matched(14,18) matched(17,19) matched(16,20) matched(15,13) matched(21,22) matched(26,23) matched(27,24) matched(28,25) matched(23,26) matched(24,27) matched(25,28) matched(22,21) matched(32,30) matched(29,31) matched(30,32) matched(31,29) matched(38,34) matched(33,35) matched(40,36) matched(39,37) matched(34,38) matched(37,39) matched(36,40) matched(35,33) matched(46,42) matched(41,43) matched(48,44) matched(47,45) matched(42,46) matched(45,47) matched(44,48) matched(43,41) matched(52,50) matched(49,51) matched(50,52) matched(51,49) matched(59,54) matched(58,55) matched(53,56) matched(60,57) matched(55,58) matched(54,59) matched(57,60) matched(56,53) matched(2,1)
Optimization: 860
Answer: 4
matched(1,2) matched(6,3) matched(7,4) matched(8,5) matched(3,6) matched(4,7) matched(5,8) matched(12,10) matched(9,11) matched(10,12) matched(11,9) matched(18,14) matched(13,15) matched(20,16) matched(19,17) matched(14,18) matched(17,19) matched(16,20) matched(15,13) matched(21,22) matched(26,23) matched(27,24) matched(28,25) matched(23,26) matched(24,27) matched(25,28) matched(22,21) matched(32,30) matched(29,31) matched(30,32) matched(31,29) matched(38,34) matched(33,35) matched(40,36) matched(39,37) matched(34,38) matched(37,39) matched(36,40) matched(35,33) matched(46,42) matched(41,43) matched(48,44) matched(47,45) matched(42,46) matched(45,47) matched(44,48) matched(43,41) matched(52,50) matched(49,51) matched(50,52) matched(51,49) matched(60,54) matched(58,55) matched(53,56) matched(59,57) matched(55,58) matched(57,59) matched(54,60) matched(56,53) matched(2,1)
Optimization: 856
Answer: 5
matched(1,2) matched(6,3) matched(7,4) matched(8,5) matched(3,6) matched(4,7) matched(5,8) matched(12,10) matched(9,11) matched(10,12) matched(11,9) matched(18,14) matched(13,15) matched(20,16) matched(19,17) matched(14,18) matched(17,19) matched(16,20) matched(15,13) matched(21,22) matched(26,23) matched(27,24) matched(28,25) matched(23,26) matched(24,27) matched(25,28) matched(22,21) matched(32,30) matched(29,31) matched(30,32) matched(31,29) matched(38,34) matched(33,35) matched(40,36) matched(39,37) matched(34,38) matched(37,39) matched(36,40) matched(35,33) matched(46,42) matched(41,43) matched(48,44) matched(47,45) matched(42,46) matched(45,47) matched(44,48) matched(43,41) matched(51,50) matched(50,51) matched(49,52) matched(52,49) matched(59,54) matched(58,55) matched(53,56) matched(60,57) matched(55,58) matched(54,59) matched(57,60) matched(56,53) matched(2,1)
Optimization: 855
Answer: 6
matched(1,2) matched(6,3) matched(7,4) matched(8,5) matched(3,6) matched(4,7) matched(5,8) matched(12,10) matched(9,11) matched(10,12) matched(11,9) matched(18,14) matched(13,15) matched(20,16) matched(19,17) matched(14,18) matched(17,19) matched(16,20) matched(15,13) matched(21,22) matched(26,23) matched(27,24) matched(28,25) matched(23,26) matched(24,27) matched(25,28) matched(22,21) matched(32,30) matched(29,31) matched(30,32) matched(31,29) matched(38,34) matched(33,35) matched(40,36) matched(39,37) matched(34,38) matched(37,39) matched(36,40) matched(35,33) matched(46,42) matched(41,43) matched(48,44) matched(47,45) matched(42,46) matched(45,47) matched(44,48) matched(43,41) matched(51,50) matched(50,51) matched(49,52) matched(52,49) matched(60,54) matched(58,55) matched(53,56) matched(59,57) matched(55,58) matched(57,59) matched(54,60) matched(56,53) matched(2,1)
Optimization: 851
Answer: 7
matched(6,2) matched(1,3) matched(8,4) matched(7,5) matched(2,6) matched(5,7) matched(4,8) matched(11,10) matched(10,11) matched(9,12) matched(12,9) matched(19,14) matched(18,15) matched(13,16) matched(20,17) matched(15,18) matched(14,19) matched(17,20) matched(16,13) matched(27,22) matched(26,23) matched(21,24) matched(28,25) matched(23,26) matched(22,27) matched(25,28) matched(24,21) matched(31,30) matched(30,31) matched(29,32) matched(32,29) matched(40,34) matched(38,35) matched(33,36) matched(39,37) matched(35,38) matched(37,39) matched(34,40) matched(36,33) matched(46,42) matched(41,43) matched(48,44) matched(47,45) matched(42,46) matched(45,47) matched(44,48) matched(43,41) matched(51,50) matched(50,51) matched(49,52) matched(52,49) matched(60,54) matched(58,55) matched(53,56) matched(59,57) matched(55,58) matched(57,59) matched(54,60) matched(56,53) matched(3,1)
Optimization: 839
Answer: 8
matched(6,2) matched(1,3) matched(8,4) matched(7,5) matched(2,6) matched(5,7) matched(4,8) matched(11,10) matched(10,11) matched(9,12) matched(12,9) matched(19,14) matched(20,15) matched(13,16) matched(18,17) matched(17,18) matched(14,19) matched(15,20) matched(16,13) matched(27,22) matched(26,23) matched(21,24) matched(28,25) matched(23,26) matched(22,27) matched(25,28) matched(24,21) matched(31,30) matched(30,31) matched(29,32) matched(32,29) matched(40,34) matched(38,35) matched(33,36) matched(39,37) matched(35,38) matched(37,39) matched(34,40) matched(36,33) matched(46,42) matched(41,43) matched(48,44) matched(47,45) matched(42,46) matched(45,47) matched(44,48) matched(43,41) matched(51,50) matched(50,51) matched(49,52) matched(52,49) matched(60,54) matched(58,55) matched(53,56) matched(59,57) matched(55,58) matched(57,59) matched(54,60) matched(56,53) matched(3,1)
Optimization: 837
Answer: 9
matched(1,2) matched(6,3) matched(7,4) matched(8,5) matched(3,6) matched(4,7) matched(5,8) matched(11,10) matched(10,11) matched(9,12) matched(12,9) matched(19,14) matched(20,15) matched(13,16) matched(18,17) matched(17,18) matched(14,19) matched(15,20) matched(16,13) matched(26,22) matched(21,23) matched(28,24) matched(27,25) matched(22,26) matched(25,27) matched(24,28) matched(23,21) matched(31,30) matched(30,31) matched(29,32) matched(32,29) matched(39,34) matched(40,35) matched(33,36) matched(38,37) matched(37,38) matched(34,39) matched(35,40) matched(36,33) matched(48,42) matched(46,43) matched(41,44) matched(47,45) matched(43,46) matched(45,47) matched(42,48) matched(44,41) matched(51,50) matched(50,51) matched(49,52) matched(52,49) matched(60,54) matched(58,55) matched(53,56) matched(59,57) matched(55,58) matched(57,59) matched(54,60) matched(56,53) matched(2,1)
Optimization: 835
Answer: 10
matched(1,2) matched(6,3) matched(7,4) matched(8,5) matched(3,6) matched(4,7) matched(5,8) matched(11,10) matched(10,11) matched(9,12) matched(12,9) matched(13,14) matched(20,15) matched(19,16) matched(18,17) matched(17,18) matched(16,19) matched(15,20) matched(14,13) matched(26,22) matched(21,23) matched(28,24) matched(27,25) matched(22,26) matched(25,27) matched(24,28) matched(23,21) matched(31,30) matched(30,31) matched(29,32) matched(32,29) matched(39,34) matched(38,35) matched(33,36) matched(40,37) matched(35,38) matched(34,39) matched(37,40) matched(36,33) matched(48,42) matched(46,43) matched(41,44) matched(47,45) matched(43,46) matched(45,47) matched(42,48) matched(44,41) matched(51,50) matched(50,51) matched(49,52) matched(52,49) matched(58,54) matched(53,55) matched(60,56) matched(59,57) matched(54,58) matched(57,59) matched(56,60) matched(55,53) matched(2,1)
Optimization: 834
Answer: 11
matched(1,2) matched(6,3) matched(7,4) matched(8,5) matched(3,6) matched(4,7) matched(5,8) matched(11,10) matched(10,11) matched(9,12) matched(12,9) matched(19,14) matched(20,15) matched(13,16) matched(18,17) matched(17,18) matched(14,19) matched(15,20) matched(16,13) matched(26,22) matched(21,23) matched(28,24) matched(27,25) matched(22,26) matched(25,27) matched(24,28) matched(23,21) matched(31,30) matched(30,31) matched(29,32) matched(32,29) matched(39,34) matched(38,35) matched(33,36) matched(40,37) matched(35,38) matched(34,39) matched(37,40) matched(36,33) matched(48,42) matched(46,43) matched(41,44) matched(47,45) matched(43,46) matched(45,47) matched(42,48) matched(44,41) matched(51,50) matched(50,51) matched(49,52) matched(52,49) matched(58,54) matched(53,55) matched(60,56) matched(59,57) matched(54,58) matched(57,59) matched(56,60) matched(55,53) matched(2,1)
Optimization: 831
Answer: 12
matched(1,2) matched(6,3) matched(7,4) matched(8,5) matched(3,6) matched(4,7) matched(5,8) matched(11,10) matched(10,11) matched(9,12) matched(12,9) matched(13,14) matched(20,15) matched(19,16) matched(18,17) matched(17,18) matched(16,19) matched(15,20) matched(14,13) matched(26,22) matched(21,23) matched(28,24) matched(27,25) matched(22,26) matched(25,27) matched(24,28) matched(23,21) matched(31,30) matched(30,31) matched(29,32) matched(32,29) matched(39,34) matched(38,35) matched(33,36) matched(40,37) matched(35,38) matched(34,39) matched(37,40) matched(36,33) matched(48,42) matched(46,43) matched(41,44) matched(47,45) matched(43,46) matched(45,47) matched(42,48) matched(44,41) matched(52,50) matched(49,51) matched(50,52) matched(51,49) matched(60,54) matched(58,55) matched(53,56) matched(59,57) matched(55,58) matched(57,59) matched(54,60) matched(56,53) matched(2,1)
Optimization: 826
Answer: 13
matched(1,2) matched(6,3) matched(7,4) matched(8,5) matched(3,6) matched(4,7) matched(5,8) matched(11,10) matched(10,11) matched(9,12) matched(12,9) matched(13,14) matched(20,15) matched(19,16) matched(18,17) matched(17,18) matched(16,19) matched(15,20) matched(14,13) matched(26,22) matched(21,23) matched(28,24) matched(27,25) matched(22,26) matched(25,27) matched(24,28) matched(23,21) matched(31,30) matched(30,31) matched(29,32) matched(32,29) matched(39,34) matched(38,35) matched(33,36) matched(40,37) matched(35,38) matched(34,39) matched(37,40) matched(36,33) matched(48,42) matched(46,43) matched(41,44) matched(47,45) matched(43,46) matched(45,47) matched(42,48) matched(44,41) matched(51,50) matched(50,51) matched(49,52) matched(52,49) matched(60,54) matched(58,55) matched(53,56) matched(59,57) matched(55,58) matched(57,59) matched(54,60) matched(56,53) matched(2,1)
Optimization: 821
Answer: 14
matched(1,2) matched(6,3) matched(7,4) matched(8,5) matched(3,6) matched(4,7) matched(5,8) matched(11,10) matched(10,11) matched(9,12) matched(12,9) matched(19,14) matched(20,15) matched(13,16) matched(18,17) matched(17,18) matched(14,19) matched(15,20) matched(16,13) matched(26,22) matched(21,23) matched(28,24) matched(27,25) matched(22,26) matched(25,27) matched(24,28) matched(23,21) matched(31,30) matched(30,31) matched(29,32) matched(32,29) matched(39,34) matched(38,35) matched(33,36) matched(40,37) matched(35,38) matched(34,39) matched(37,40) matched(36,33) matched(48,42) matched(46,43) matched(41,44) matched(47,45) matched(43,46) matched(45,47) matched(42,48) matched(44,41) matched(51,50) matched(50,51) matched(49,52) matched(52,49) matched(60,54) matched(58,55) matched(53,56) matched(59,57) matched(55,58) matched(57,59) matched(54,60) matched(56,53) matched(2,1)
Optimization: 818
Answer: 15
matched(1,2) matched(6,3) matched(7,4) matched(8,5) matched(3,6) matched(4,7) matched(5,8) matched(12,10) matched(9,11) matched(10,12) matched(11,9) matched(19,14) matched(20,15) matched(13,16) matched(18,17) matched(17,18) matched(14,19) matched(15,20) matched(16,13) matched(26,22) matched(21,23) matched(28,24) matched(27,25) matched(22,26) matched(25,27) matched(24,28) matched(23,21) matched(32,30) matched(29,31) matched(30,32) matched(31,29) matched(39,34) matched(40,35) matched(33,36) matched(38,37) matched(37,38) matched(34,39) matched(35,40) matched(36,33) matched(41,42) matched(46,43) matched(47,44) matched(48,45) matched(43,46) matched(44,47) matched(45,48) matched(42,41) matched(51,50) matched(50,51) matched(49,52) matched(52,49) matched(60,54) matched(58,55) matched(53,56) matched(59,57) matched(55,58) matched(57,59) matched(54,60) matched(56,53) matched(2,1)
Optimization: 816
Answer: 16
matched(7,2) matched(6,3) matched(1,4) matched(8,5) matched(3,6) matched(2,7) matched(5,8) matched(12,10) matched(9,11) matched(10,12) matched(11,9) matched(19,14) matched(20,15) matched(13,16) matched(18,17) matched(17,18) matched(14,19) matched(15,20) matched(16,13) matched(26,22) matched(21,23) matched(28,24) matched(27,25) matched(22,26) matched(25,27) matched(24,28) matched(23,21) matched(32,30) matched(29,31) matched(30,32) matched(31,29) matched(39,34) matched(40,35) matched(33,36) matched(38,37) matched(37,38) matched(34,39) matched(35,40) matched(36,33) matched(41,42) matched(46,43) matched(47,44) matched(48,45) matched(43,46) matched(44,47) matched(45,48) matched(42,41) matched(51,50) matched(50,51) matched(49,52) matched(52,49) matched(60,54) matched(58,55) matched(53,56) matched(59,57) matched(55,58) matched(57,59) matched(54,60) matched(56,53) matched(4,1)
Optimization: 815
Answer: 17
matched(7,2) matched(6,3) matched(1,4) matched(8,5) matched(3,6) matched(2,7) matched(5,8) matched(12,10) matched(9,11) matched(10,12) matched(11,9) matched(19,14) matched(20,15) matched(13,16) matched(18,17) matched(17,18) matched(14,19) matched(15,20) matched(16,13) matched(27,22) matched(26,23) matched(21,24) matched(28,25) matched(23,26) matched(22,27) matched(25,28) matched(24,21) matched(32,30) matched(29,31) matched(30,32) matched(31,29) matched(39,34) matched(40,35) matched(33,36) matched(38,37) matched(37,38) matched(34,39) matched(35,40) matched(36,33) matched(41,42) matched(46,43) matched(47,44) matched(48,45) matched(43,46) matched(44,47) matched(45,48) matched(42,41) matched(51,50) matched(50,51) matched(49,52) matched(52,49) matched(60,54) matched(58,55) matched(53,56) matched(59,57) matched(55,58) matched(57,59) matched(54,60) matched(56,53) matched(4,1)
Optimization: 814
Answer: 18
matched(6,2) matched(1,3) matched(8,4) matched(7,5) matched(2,6) matched(5,7) matched(4,8) matched(12,10) matched(9,11) matched(10,12) matched(11,9) matched(19,14) matched(20,15) matched(13,16) matched(18,17) matched(17,18) matched(14,19) matched(15,20) matched(16,13) matched(27,22) matched(26,23) matched(21,24) matched(28,25) matched(23,26) matched(22,27) matched(25,28) matched(24,21) matched(31,30) matched(30,31) matched(29,32) matched(32,29) matched(39,34) matched(40,35) matched(33,36) matched(38,37) matched(37,38) matched(34,39) matched(35,40) matched(36,33) matched(41,42) matched(46,43) matched(47,44) matched(48,45) matched(43,46) matched(44,47) matched(45,48) matched(42,41) matched(51,50) matched(50,51) matched(49,52) matched(52,49) matched(60,54) matched(58,55) matched(53,56) matched(59,57) matched(55,58) matched(57,59) matched(54,60) matched(56,53) matched(3,1)
Optimization: 813
Answer: 19
matched(7,2) matched(6,3) matched(1,4) matched(8,5) matched(3,6) matched(2,7) matched(5,8) matched(12,10) matched(9,11) matched(10,12) matched(11,9) matched(19,14) matched(20,15) matched(13,16) matched(18,17) matched(17,18) matched(14,19) matched(15,20) matched(16,13) matched(27,22) matched(26,23) matched(21,24) matched(28,25) matched(23,26) matched(22,27) matched(25,28) matched(24,21) matched(31,30) matched(30,31) matched(29,32) matched(32,29) matched(39,34) matched(40,35) matched(33,36) matched(38,37) matched(37,38) matched(34,39) matched(35,40) matched(36,33) matched(41,42) matched(46,43) matched(47,44) matched(48,45) matched(43,46) matched(44,47) matched(45,48) matched(42,41) matched(51,50) matched(50,51) matched(49,52) matched(52,49) matched(60,54) matched(58,55) matched(53,56) matched(59,57) matched(55,58) matched(57,59) matched(54,60) matched(56,53) matched(4,1)
Optimization: 812
Answer: 20
matched(1,2) matched(8,3) matched(7,4) matched(6,5) matched(5,6) matched(4,7) matched(3,8) matched(12,10) matched(9,11) matched(10,12) matched(11,9) matched(19,14) matched(18,15) matched(13,16) matched(20,17) matched(15,18) matched(14,19) matched(17,20) matched(16,13) matched(28,22) matched(26,23) matched(21,24) matched(27,25) matched(23,26) matched(25,27) matched(22,28) matched(24,21) matched(32,30) matched(29,31) matched(30,32) matched(31,29) matched(39,34) matched(38,35) matched(33,36) matched(40,37) matched(35,38) matched(34,39) matched(37,40) matched(36,33) matched(41,42) matched(46,43) matched(47,44) matched(48,45) matched(43,46) matched(44,47) matched(45,48) matched(42,41) matched(51,50) matched(50,51) matched(49,52) matched(52,49) matched(59,54) matched(58,55) matched(53,56) matched(60,57) matched(55,58) matched(54,59) matched(57,60) matched(56,53) matched(2,1)
Optimization: 810
Answer: 21
matched(1,2) matched(8,3) matched(7,4) matched(6,5) matched(5,6) matched(4,7) matched(3,8) matched(12,10) matched(9,11) matched(10,12) matched(11,9) matched(19,14) matched(18,15) matched(13,16) matched(20,17) matched(15,18) matched(14,19) matched(17,20) matched(16,13) matched(28,22) matched(26,23) matched(21,24) matched(27,25) matched(23,26) matched(25,27) matched(22,28) matched(24,21) matched(32,30) matched(29,31) matched(30,32) matched(31,29) matched(39,34) matched(38,35) matched(33,36) matched(40,37) matched(35,38) matched(34,39) matched(37,40) matched(36,33) matched(41,42) matched(46,43) matched(47,44) matched(48,45) matched(43,46) matched(44,47) matched(45,48) matched(42,41) matched(51,50) matched(50,51) matched(49,52) matched(52,49) matched(60,54) matched(58,55) matched(53,56) matched(59,57) matched(55,58) matched(57,59) matched(54,60) matched(56,53) matched(2,1)
Optimization: 806
Answer: 22
matched(1,2) matched(8,3) matched(7,4) matched(6,5) matched(5,6) matched(4,7) matched(3,8) matched(12,10) matched(9,11) matched(10,12) matched(11,9) matched(19,14) matched(18,15) matched(13,16) matched(20,17) matched(15,18) matched(14,19) matched(17,20) matched(16,13) matched(26,22) matched(21,23) matched(28,24) matched(27,25) matched(22,26) matched(25,27) matched(24,28) matched(23,21) matched(32,30) matched(29,31) matched(30,32) matched(31,29) matched(39,34) matched(38,35) matched(33,36) matched(40,37) matched(35,38) matched(34,39) matched(37,40) matched(36,33) matched(41,42) matched(46,43) matched(47,44) matched(48,45) matched(43,46) matched(44,47) matched(45,48) matched(42,41) matched(51,50) matched(50,51) matched(49,52) matched(52,49) matched(60,54) matched(58,55) matched(53,56) matched(59,57) matched(55,58) matched(57,59) matched(54,60) matched(56,53) matched(2,1)
Optimization: 802
Answer: 23
matched(1,2) matched(8,3) matched(7,4) matched(6,5) matched(5,6) matched(4,7) matched(3,8) matched(12,10) matched(9,11) matched(10,12) matched(11,9) matched(19,14) matched(20,15) matched(13,16) matched(18,17) matched(17,18) matched(14,19) matched(15,20) matched(16,13) matched(26,22) matched(21,23) matched(28,24) matched(27,25) matched(22,26) matched(25,27) matched(24,28) matched(23,21) matched(32,30) matched(29,31) matched(30,32) matched(31,29) matched(39,34) matched(38,35) matched(33,36) matched(40,37) matched(35,38) matched(34,39) matched(37,40) matched(36,33) matched(41,42) matched(46,43) matched(47,44) matched(48,45) matched(43,46) matched(44,47) matched(45,48) matched(42,41) matched(51,50) matched(50,51) matched(49,52) matched(52,49) matched(60,54) matched(58,55) matched(53,56) matched(59,57) matched(55,58) matched(57,59) matched(54,60) matched(56,53) matched(2,1)
Optimization: 800
Answer: 24
matched(1,2) matched(8,3) matched(7,4) matched(6,5) matched(5,6) matched(4,7) matched(3,8) matched(12,10) matched(9,11) matched(10,12) matched(11,9) matched(19,14) matched(20,15) matched(13,16) matched(18,17) matched(17,18) matched(14,19) matched(15,20) matched(16,13) matched(26,22) matched(21,23) matched(28,24) matched(27,25) matched(22,26) matched(25,27) matched(24,28) matched(23,21) matched(31,30) matched(30,31) matched(29,32) matched(32,29) matched(39,34) matched(38,35) matched(33,36) matched(40,37) matched(35,38) matched(34,39) matched(37,40) matched(36,33) matched(41,42) matched(46,43) matched(47,44) matched(48,45) matched(43,46) matched(44,47) matched(45,48) matched(42,41) matched(51,50) matched(50,51) matched(49,52) matched(52,49) matched(60,54) matched(58,55) matched(53,56) matched(59,57) matched(55,58) matched(57,59) matched(54,60) matched(56,53) matched(2,1)
Optimization: 798
Answer: 25
matched(7,2) matched(6,3) matched(1,4) matched(8,5) matched(3,6) matched(2,7) matched(5,8) matched(12,10) matched(9,11) matched(10,12) matched(11,9) matched(19,14) matched(20,15) matched(13,16) matched(18,17) matched(17,18) matched(14,19) matched(15,20) matched(16,13) matched(27,22) matched(26,23) matched(21,24) matched(28,25) matched(23,26) matched(22,27) matched(25,28) matched(24,21) matched(32,30) matched(29,31) matched(30,32) matched(31,29) matched(39,34) matched(38,35) matched(33,36) matched(40,37) matched(35,38) matched(34,39) matched(37,40) matched(36,33) matched(41,42) matched(46,43) matched(47,44) matched(48,45) matched(43,46) matched(44,47) matched(45,48) matched(42,41) matched(51,50) matched(50,51) matched(49,52) matched(52,49) matched(60,54) matched(58,55) matched(53,56) matched(59,57) matched(55,58) matched(57,59) matched(54,60) matched(56,53) matched(4,1)
Optimization: 797
Answer: 26
matched(1,2) matched(6,3) matched(7,4) matched(8,5) matched(3,6) matched(4,7) matched(5,8) matched(12,10) matched(9,11) matched(10,12) matched(11,9) matched(19,14) matched(20,15) matched(13,16) matched(18,17) matched(17,18) matched(14,19) matched(15,20) matched(16,13) matched(27,22) matched(26,23) matched(21,24) matched(28,25) matched(23,26) matched(22,27) matched(25,28) matched(24,21) matched(31,30) matched(30,31) matched(29,32) matched(32,29) matched(39,34) matched(38,35) matched(33,36) matched(40,37) matched(35,38) matched(34,39) matched(37,40) matched(36,33) matched(41,42) matched(46,43) matched(47,44) matched(48,45) matched(43,46) matched(44,47) matched(45,48) matched(42,41) matched(51,50) matched(50,51) matched(49,52) matched(52,49) matched(60,54) matched(58,55) matched(53,56) matched(59,57) matched(55,58) matched(57,59) matched(54,60) matched(56,53) matched(2,1)
Optimization: 796
Answer: 27
matched(7,2) matched(6,3) matched(1,4) matched(8,5) matched(3,6) matched(2,7) matched(5,8) matched(12,10) matched(9,11) matched(10,12) matched(11,9) matched(19,14) matched(20,15) matched(13,16) matched(18,17) matched(17,18) matched(14,19) matched(15,20) matched(16,13) matched(27,22) matched(26,23) matched(21,24) matched(28,25) matched(23,26) matched(22,27) matched(25,28) matched(24,21) matched(31,30) matched(30,31) matched(29,32) matched(32,29) matched(39,34) matched(38,35) matched(33,36) matched(40,37) matched(35,38) matched(34,39) matched(37,40) matched(36,33) matched(41,42) matched(46,43) matched(47,44) matched(48,45) matched(43,46) matched(44,47) matched(45,48) matched(42,41) matched(51,50) matched(50,51) matched(49,52) matched(52,49) matched(60,54) matched(58,55) matched(53,56) matched(59,57) matched(55,58) matched(57,59) matched(54,60) matched(56,53) matched(4,1)
Optimization: 795
OPTIMUM FOUND

Models       : 27
  Optimum    : yes
Optimization : 795
Calls        : 1
Time         : 21.322s (Solving: 10.10s 1st Model: 0.03s Unsat: 7.12s)
CPU Time     : 21.243s
